(set-logic QF_S)
(declare-fun var0 () String)
(assert (RegexIn var0 (RegexConcat (RegexUnion (RegexPlus (RegexPlus (Str2Reg "0"))) (RegexPlus (RegexPlus (Str2Reg "111")))) (RegexStar (RegexPlus (RegexStar (Str2Reg "2")))))))
(assert (<= 15 (Length var0)))
(check-sat)